DATASET = "thpack5";
INSTANCE = "051";

WIDTH = 233;
HEIGHT = 220;
LENGTH = 587;

NO_OF_SHAPES = 12;
size = [|
  66,64,36 |
  97,73,49 |
  69,60,43 |
  52,37,20 |
  109,63,37 |
  79,57,24 |
  95,72,22 |
  65,50,39 |
  98,42,30 |
  53,40,36 |
  82,54,51 |
  77,33,31 |
|];

verticality = [|
  1,1,1 |
  1,1,1 |
  1,1,1 |
  0,1,1 |
  0,1,1 |
  0,0,1 |
  0,0,1 |
  1,1,1 |
  0,1,1 |
  1,1,1 |
  1,1,1 |
  0,1,1 |
|];

box_count = [
  11,
  13,
  23,
  17,
  18,
  20,
  18,
  17,
  17,
  14,
  15,
  12,
];
